11 965
539 7 515 7 439 11
539 7 515 7 439 11
525 7 445 7 286 10
525 7 479 7 355 7 106 9 927 13
525 7 445 7 264 7 63 9 889 11 721 18
525 7 479 7 299 7 87 9 884 11 701 15 552 22
525 7 507 7 429 11
525 7 507 7 429 11
529 7 510 7 304 10
524 7 473 7 352 11
525 7 482 7 365 7 115 9 943 13
